
******************************************************************************
This program contains Ipopt, a library for large-scale nonlinear optimization.
 Ipopt is released as open source code under the Eclipse Public License (EPL).
         For more information visit http://projects.coin-or.org/Ipopt
******************************************************************************

This is Ipopt version 3.12.6, running with linear solver ma57.

Number of nonzeros in equality constraint Jacobian...:        0
Number of nonzeros in inequality constraint Jacobian.:     6000
Number of nonzeros in Lagrangian Hessian.............:     2002

Total number of variables............................:     2002
                     variables with only lower bounds:        0
                variables with lower and upper bounds:        0
                     variables with only upper bounds:        0
Total number of equality constraints.................:        0
Total number of inequality constraints...............:     2000
        inequality constraints with only lower bounds:     2000
   inequality constraints with lower and upper bounds:        0
        inequality constraints with only upper bounds:        0

iter    objective    inf_pr   inf_du lg(mu)  ||d||  lg(rg) alpha_du alpha_pr  ls
   0  5.0587437e+02 0.00e+00 1.58e+00  -1.0 0.00e+00    -  0.00e+00 0.00e+00   0
   1  7.3777505e+01 3.59e-03 3.89e+00  -1.0 1.92e+00    -  1.00e+00 6.31e-01f  1
   2  1.8828166e+01 1.55e-03 1.49e+01  -1.0 6.85e-01    -  1.00e+00 5.68e-01h  1
   3  8.9520187e+00 6.65e-04 3.75e+01  -1.0 4.09e-01    -  1.00e+00 5.70e-01h  1
   4  8.0661367e+00 2.93e-04 9.46e+01  -1.0 3.04e-01    -  1.00e+00 5.58e-01h  1
   5  9.3683646e+00 1.29e-04 2.31e+02  -1.0 2.72e-01    -  1.00e+00 5.63e-01h  1
   6  1.2086139e+01 6.67e-05 7.94e+02  -1.0 2.78e-01    -  1.00e+00 4.85e-01h  1
   7  1.7006204e+01 4.04e-05 3.25e+03  -1.0 2.94e-01    -  1.00e+00 4.01e-01h  1
   8  3.4597894e+01 2.30e-05 9.54e+03  -1.0 4.44e-01    -  1.00e+00 4.34e-01h  1
   9  9.7769987e+01 1.22e-05 2.00e+04  -1.0 6.70e-01    -  1.00e+00 4.61e-01h  1
iter    objective    inf_pr   inf_du lg(mu)  ||d||  lg(rg) alpha_du alpha_pr  ls
  10  1.9229824e+02 6.50e-06 2.75e+04  -1.0 6.37e-01    -  1.00e+00 4.47e-01h  1
  11  3.0521734e+02 2.69e-06 2.18e+04  -1.0 4.84e-01    -  1.00e+00 5.55e-01h  1
  12  4.1495617e+02 2.09e-07 5.83e+03  -1.0 2.74e-01    -  1.00e+00 8.47e-01h  1
  13  4.2085363e+02 0.00e+00 1.00e+04  -1.0 8.77e-02    -  1.00e+00 2.50e-01f  3
  14  4.4155576e+02 0.00e+00 1.00e-06  -1.0 6.07e-02    -  1.00e+00 1.00e+00h  1
  15  3.8129040e+02 0.00e+00 3.01e+03  -5.7 6.70e-01    -  9.09e-01 1.00e+00f  1
  16  3.6547878e+02 0.00e+00 4.64e+03  -5.7 2.65e-01    -  5.64e-03 5.19e-01f  1
  17  3.6490584e+02 0.00e+00 3.53e+03  -5.7 1.72e-01    -  1.83e-01 3.55e-02f  1
  18  3.6322667e+02 0.00e+00 3.11e+03  -5.7 1.79e-01    -  1.16e-01 1.05e-01f  1
  19  3.6207940e+02 0.00e+00 3.03e+03  -5.7 1.75e-01    -  4.28e-02 7.84e-02f  1
iter    objective    inf_pr   inf_du lg(mu)  ||d||  lg(rg) alpha_du alpha_pr  ls
  20  3.6167223e+02 0.00e+00 1.44e+03  -5.7 1.65e-01    -  3.62e-01 2.99e-02f  1
  21  3.5914354e+02 0.00e+00 9.17e+02  -5.7 1.84e-01    -  2.71e-01 1.84e-01f  1
  22  3.5692647e+02 0.00e+00 6.18e+02  -5.7 1.70e-01    -  8.08e-01 1.92e-01f  1
  23  3.5365660e+02 0.00e+00 6.00e+02  -5.7 1.80e-01    -  6.99e-01 3.29e-01f  1
  24  3.4939724e+02 0.00e+00 1.51e+02  -5.7 1.44e-01    -  1.29e-01 6.43e-01f  1
  25  3.4844707e+02 0.00e+00 5.38e+01  -5.7 6.26e-02    -  1.73e-01 4.01e-01f  1
  26  3.4810724e+02 0.00e+00 5.90e+01  -5.7 4.40e-02    -  5.24e-01 2.38e-01f  1
  27  3.4753405e+02 0.00e+00 2.28e+01  -5.7 3.68e-02    -  2.87e-01 5.20e-01f  1
  28  3.4701311e+02 0.00e+00 1.26e+01  -5.7 2.01e-02    -  7.03e-01 9.78e-01f  1
  29  3.4699546e+02 0.00e+00 6.90e-02  -5.7 2.13e-03    -  1.00e+00 9.62e-01f  1
iter    objective    inf_pr   inf_du lg(mu)  ||d||  lg(rg) alpha_du alpha_pr  ls
  30  3.4699461e+02 0.00e+00 2.91e-11  -5.7 1.70e-04    -  1.00e+00 1.00e+00f  1

Number of Iterations....: 30

                                   (scaled)                 (unscaled)
Objective...............:   3.4699461383979690e+02    3.4699461383979690e+02
Dual infeasibility......:   2.9103830456733704e-11    2.9103830456733704e-11
Constraint violation....:   0.0000000000000000e+00    0.0000000000000000e+00
Complementarity.........:   1.9183073357185431e-06    1.9183073357185431e-06
Overall NLP error.......:   7.2705789561263288e-09    1.9183073357185431e-06


Number of objective function evaluations             = 33
Number of objective gradient evaluations             = 31
Number of equality constraint evaluations            = 0
Number of inequality constraint evaluations          = 33
Number of equality constraint Jacobian evaluations   = 0
Number of inequality constraint Jacobian evaluations = 31
Number of Lagrangian Hessian evaluations             = 30
Total CPU secs in IPOPT (w/o function evaluations)   =      0.080
Total CPU secs in NLP function evaluations           =      0.020

EXIT: Optimal Solution Found.

************************ CUTEst statistics ************************


 Package used            :  IPOPT
 Problem                 :  LISWET12  
 # variables             =            2002
 # constraints           =            2000
 # objective functions   =        0.6500000E+02
 # objective gradients   =        0.3200000E+02
 # objective Hessians    =        0.3100000E+02
 # Hessian-vector prdct  =        0.0000000E+00
 # constraints functions =        0.6600000E+02
 # constraints gradients =        0.3300000E+02
 # constraints Hessians  =        0.3100000E+02
 Exit code               =               0
 Final f                 =   0.3469946E+03
 Set up time             =            0.04 seconds
 Solve time              =            0.31 seconds


******************************************************************

System Time =       0.0829999968 s.
